NAME :  IRP
COMMENT : 
TYPE :  CVRP
DIMENSION : 	9
EDGE_WEIGHT_TYPE : 	EUC_2D
CAPACITY : 	587
NODE_COORD_SECTION
1	444	37
2	345	384
3	14	238
4	153	275
5	194	277
6	349	158
7	441	211
8	252	458
9	111	197
DEMAND_SECTION
1	0
2	54
3	94
4	76
5	59
6	67
7	186
8	176
9	198
DEPOT_SECTION
	1
	-1
EOF
